p cnf 260 311
-1 12 13 14 15 17 18 19 20 21 22 23 24 25 26 27 28 29 30 31 110 111 113 114 115 116 117 118 119 120 121 122 123 124 125 157 210 256 257 -258 0 
-2 62 104 258 -257 0 
-3 258 -257 0 
-4 40 42 65 68 150 154 192 199 200 229 252 -5 51 259 -257 -258 -64 -83 -206 0 
-6 -7 259 -257 -258 -64 -83 -206 0 
-8 46 67 74 131 201 258 -257 0 
-9 258 -257 0 
-10 77 98 258 -257 0 
-11 32 50 132 160 190 198 204 211 228 250 258 -257 0 
-12 1 13 14 15 17 18 19 20 21 22 23 24 25 26 27 28 29 30 31 110 111 113 114 115 116 117 118 119 120 121 122 123 124 125 157 210 256 259 -257 -258 -64 -83 -206 0 
-13 1 12 14 15 17 18 19 20 21 22 23 24 25 26 27 28 29 30 31 110 111 113 114 115 116 117 118 119 120 121 122 123 124 125 157 210 256 259 -257 -258 -64 -83 -206 0 
-14 1 12 13 15 17 18 19 20 21 22 23 24 25 26 27 28 29 30 31 110 111 113 114 115 116 117 118 119 120 121 122 123 124 125 157 210 256 259 -257 -258 -64 -83 -206 0 
-15 1 12 13 14 17 18 19 20 21 22 23 24 25 26 27 28 29 30 31 110 111 113 114 115 116 117 118 119 120 121 122 123 124 125 157 210 256 259 -257 -258 -64 -83 -206 0 
-16 45 71 72 73 75 112 136 143 193 195 207 214 227 259 -257 -258 -64 -83 -206 0 
-17 1 12 13 14 15 18 19 20 21 22 23 24 25 26 27 28 29 30 31 110 111 113 114 115 116 117 118 119 120 121 122 123 124 125 157 210 256 259 -257 -258 -64 -83 -206 0 
-18 1 12 13 14 15 17 19 20 21 22 23 24 25 26 27 28 29 30 31 110 111 113 114 115 116 117 118 119 120 121 122 123 124 125 157 210 256 259 -257 -258 -64 -83 -206 0 
-19 1 12 13 14 15 17 18 20 21 22 23 24 25 26 27 28 29 30 31 110 111 113 114 115 116 117 118 119 120 121 122 123 124 125 157 210 256 259 -257 -258 -64 -83 -206 0 
-20 1 12 13 14 15 17 18 19 21 22 23 24 25 26 27 28 29 30 31 110 111 113 114 115 116 117 118 119 120 121 122 123 124 125 157 210 256 259 -257 -258 -64 -83 -206 0 
-21 1 12 13 14 15 17 18 19 20 22 23 24 25 26 27 28 29 30 31 110 111 113 114 115 116 117 118 119 120 121 122 123 124 125 157 210 256 259 -257 -258 -64 -83 -206 0 
-22 1 12 13 14 15 17 18 19 20 21 23 24 25 26 27 28 29 30 31 110 111 113 114 115 116 117 118 119 120 121 122 123 124 125 157 210 256 259 -257 -258 -64 -83 -206 0 
-23 1 12 13 14 15 17 18 19 20 21 22 24 25 26 27 28 29 30 31 110 111 113 114 115 116 117 118 119 120 121 122 123 124 125 157 210 256 259 -257 -258 -64 -83 -206 0 
-24 1 12 13 14 15 17 18 19 20 21 22 23 25 26 27 28 29 30 31 110 111 113 114 115 116 117 118 119 120 121 122 123 124 125 157 210 256 259 -257 -258 -64 -83 -206 0 
-25 1 12 13 14 15 17 18 19 20 21 22 23 24 26 27 28 29 30 31 110 111 113 114 115 116 117 118 119 120 121 122 123 124 125 157 210 256 259 -257 -258 -64 -83 -206 0 
-26 1 12 13 14 15 17 18 19 20 21 22 23 24 25 27 28 29 30 31 110 111 113 114 115 116 117 118 119 120 121 122 123 124 125 157 210 256 259 -257 -258 -64 -83 -206 0 
-27 1 12 13 14 15 17 18 19 20 21 22 23 24 25 26 28 29 30 31 110 111 113 114 115 116 117 118 119 120 121 122 123 124 125 157 210 256 259 -257 -258 -64 -83 -206 0 
-28 1 12 13 14 15 17 18 19 20 21 22 23 24 25 26 27 29 30 31 110 111 113 114 115 116 117 118 119 120 121 122 123 124 125 157 210 256 259 -257 -258 -64 -83 -206 0 
-29 1 12 13 14 15 17 18 19 20 21 22 23 24 25 26 27 28 30 31 110 111 113 114 115 116 117 118 119 120 121 122 123 124 125 157 210 256 259 -257 -258 -64 -83 -206 0 
-30 1 12 13 14 15 17 18 19 20 21 22 23 24 25 26 27 28 29 31 110 111 113 114 115 116 117 118 119 120 121 122 123 124 125 157 210 256 259 -257 -258 -64 -83 -206 0 
-31 1 12 13 14 15 17 18 19 20 21 22 23 24 25 26 27 28 29 30 110 111 113 114 115 116 117 118 119 120 121 122 123 124 125 157 210 256 259 -257 -258 -64 -83 -206 0 
-32 11 50 132 160 190 198 204 211 228 250 258 -257 0 
-33 35 164 258 -257 0 
-34 258 -257 0 
-35 33 164 258 -257 0 
-36 -3 258 -257 0 
-37 44 258 -257 0 
-38 258 -257 0 
-37 44 259 -257 -258 -64 -83 -206 0 
-39 60 169 240 258 -257 0 
-40 4 42 65 68 150 154 192 199 200 229 252 258 -257 0 
-41 56 213 258 -257 0 
-42 4 40 65 68 150 154 192 199 200 229 252 257 -258 0 
-43 257 -258 0 
-44 37 258 -257 0 
-45 16 71 72 73 75 112 136 143 193 195 207 214 227 258 -257 0 
-46 8 67 74 131 201 -2 62 104 257 -258 0 
-41 56 213 259 -257 -258 -64 -83 -206 0 
-5 51 259 -257 -258 -64 -83 -206 0 
-47 -2 62 104 258 -257 0 
-48 78 156 185 220 242 258 -257 0 
-49 66 80 94 159 258 -257 0 
-50 11 32 132 160 190 198 204 211 228 250 258 -257 0 
-51 5 258 -257 0 
-52 81 85 155 203 258 -257 0 
-53 126 258 -257 0 
-44 37 -2 62 104 258 -257 0 
-36 258 -257 0 
-54 96 208 209 237 -3 257 -258 0 
-55 69 257 -258 0 
-56 41 213 257 -258 0 
-57 151 257 -258 0 
-58 257 -258 0 
-41 56 213 -59 87 133 205 245 -60 39 169 240 258 -257 0 
-49 66 80 94 159 -61 235 258 -257 0 
-61 235 -51 5 -62 2 104 258 -257 0 
-63 127 129 167 179 180 184 196 216 224 258 -257 0 
-64 83 206 257 -258 0 
-42 4 40 65 68 150 154 192 199 200 229 252 -3 257 -258 0 
-65 4 40 42 68 150 154 192 199 200 229 252 258 -257 0 
-66 49 80 94 159 -67 8 46 74 131 201 -2 62 104 258 -257 0 
-68 4 40 42 65 150 154 192 199 200 229 252 -69 55 258 -257 0 
-70 259 -257 -258 -64 -83 -206 0 
-71 16 45 72 73 75 112 136 143 193 195 207 214 227 259 -257 -258 -64 -83 -206 0 
-72 16 45 71 73 75 112 136 143 193 195 207 214 227 259 -257 -258 -64 -83 -206 0 
-73 16 45 71 72 75 112 136 143 193 195 207 214 227 259 -257 -258 -64 -83 -206 0 
-74 8 46 67 131 201 259 -257 -258 -64 -83 -206 0 
-75 16 45 71 72 73 112 136 143 193 195 207 214 227 259 -257 -258 -64 -83 -206 0 
-41 56 213 -76 178 243 259 -257 -258 -64 -83 -206 0 
-77 10 98 258 -257 0 
-78 48 156 185 220 242 258 -257 0 
-79 105 144 161 170 217 218 219 239 241 258 -257 0 
-48 78 156 185 220 242 258 -257 0 
-80 49 66 94 159 -81 52 85 155 203 258 -257 0 
-82 258 -257 0 
-51 5 -62 2 104 258 -257 0 
-83 64 206 258 -257 0 
-84 139 238 -85 52 81 155 203 258 -257 0 
-86 258 -257 0 
-87 59 133 205 245 -88 176 188 189 231 258 -257 0 
-41 56 213 -89 258 -257 0 
-90 -45 16 71 72 73 75 112 136 143 193 195 207 214 227 -91 93 135 168 258 -257 0 
-59 87 133 205 245 -92 232 -93 91 135 168 258 -257 0 
-59 87 133 205 245 -94 49 66 80 159 -95 236 -91 93 135 168 258 -257 0 
-96 54 208 209 237 -91 93 135 168 258 -257 0 
-42 4 40 65 68 150 154 192 199 200 229 252 -97 141 257 -258 0 
-10 77 98 258 -257 0 
-98 10 77 258 -257 0 
-2 62 104 -3 258 -257 0 
-77 10 98 258 -257 0 
-67 8 46 74 131 201 -2 62 104 258 -257 0 
-99 258 -257 0 
-67 8 46 74 131 201 -100 -101 258 -257 0 
-10 77 98 258 -257 0 
-47 -2 62 104 -102 258 -257 0 
-103 -2 62 104 258 -257 0 
-54 96 208 209 237 -104 2 62 257 -258 0 
-105 79 144 161 170 217 218 219 239 241 258 -257 0 
-106 182 186 187 222 223 -101 259 -257 -258 -64 -83 -206 0 
-59 87 133 205 245 -107 130 134 140 142 152 158 165 172 221 -108 166 259 -257 -258 -64 -83 -206 0 
-3 -100 -101 258 -257 0 
-54 96 208 209 237 -2 62 104 257 -258 0 
-109 -2 62 104 258 -257 0 
-3 -101 258 -257 0 
-110 1 12 13 14 15 17 18 19 20 21 22 23 24 25 26 27 28 29 30 31 111 113 114 115 116 117 118 119 120 121 122 123 124 125 157 210 256 259 -257 -258 -64 -83 -206 0 
-111 1 12 13 14 15 17 18 19 20 21 22 23 24 25 26 27 28 29 30 31 110 113 114 115 116 117 118 119 120 121 122 123 124 125 157 210 256 259 -257 -258 -64 -83 -206 0 
-112 16 45 71 72 73 75 136 143 193 195 207 214 227 259 -257 -258 -64 -83 -206 0 
-113 1 12 13 14 15 17 18 19 20 21 22 23 24 25 26 27 28 29 30 31 110 111 114 115 116 117 118 119 120 121 122 123 124 125 157 210 256 259 -257 -258 -64 -83 -206 0 
-114 1 12 13 14 15 17 18 19 20 21 22 23 24 25 26 27 28 29 30 31 110 111 113 115 116 117 118 119 120 121 122 123 124 125 157 210 256 259 -257 -258 -64 -83 -206 0 
-115 1 12 13 14 15 17 18 19 20 21 22 23 24 25 26 27 28 29 30 31 110 111 113 114 116 117 118 119 120 121 122 123 124 125 157 210 256 259 -257 -258 -64 -83 -206 0 
-116 1 12 13 14 15 17 18 19 20 21 22 23 24 25 26 27 28 29 30 31 110 111 113 114 115 117 118 119 120 121 122 123 124 125 157 210 256 259 -257 -258 -64 -83 -206 0 
-117 1 12 13 14 15 17 18 19 20 21 22 23 24 25 26 27 28 29 30 31 110 111 113 114 115 116 118 119 120 121 122 123 124 125 157 210 256 259 -257 -258 -64 -83 -206 0 
-118 1 12 13 14 15 17 18 19 20 21 22 23 24 25 26 27 28 29 30 31 110 111 113 114 115 116 117 119 120 121 122 123 124 125 157 210 256 259 -257 -258 -64 -83 -206 0 
-119 1 12 13 14 15 17 18 19 20 21 22 23 24 25 26 27 28 29 30 31 110 111 113 114 115 116 117 118 120 121 122 123 124 125 157 210 256 259 -257 -258 -64 -83 -206 0 
-120 1 12 13 14 15 17 18 19 20 21 22 23 24 25 26 27 28 29 30 31 110 111 113 114 115 116 117 118 119 121 122 123 124 125 157 210 256 259 -257 -258 -64 -83 -206 0 
-121 1 12 13 14 15 17 18 19 20 21 22 23 24 25 26 27 28 29 30 31 110 111 113 114 115 116 117 118 119 120 122 123 124 125 157 210 256 259 -257 -258 -64 -83 -206 0 
-122 1 12 13 14 15 17 18 19 20 21 22 23 24 25 26 27 28 29 30 31 110 111 113 114 115 116 117 118 119 120 121 123 124 125 157 210 256 259 -257 -258 -64 -83 -206 0 
-123 1 12 13 14 15 17 18 19 20 21 22 23 24 25 26 27 28 29 30 31 110 111 113 114 115 116 117 118 119 120 121 122 124 125 157 210 256 259 -257 -258 -64 -83 -206 0 
-106 182 186 187 222 223 259 -257 -258 -64 -83 -206 0 
-124 1 12 13 14 15 17 18 19 20 21 22 23 24 25 26 27 28 29 30 31 110 111 113 114 115 116 117 118 119 120 121 122 123 125 157 210 256 259 -257 -258 -64 -83 -206 0 
-125 1 12 13 14 15 17 18 19 20 21 22 23 24 25 26 27 28 29 30 31 110 111 113 114 115 116 117 118 119 120 121 122 123 124 157 210 256 259 -257 -258 -64 -83 -206 0 
-62 2 104 -106 182 186 187 222 223 -126 53 258 -257 0 
-2 62 104 -100 -101 -127 63 129 167 179 180 184 196 216 224 258 -257 0 
-95 236 -104 2 62 259 -257 -258 -64 -83 -206 0 
-128 -129 63 127 167 179 180 184 196 216 224 259 -257 -258 -64 -83 -206 0 
-100 -101 -91 93 135 168 258 -257 0 
-130 107 134 140 142 152 158 165 172 221 257 -258 0 
-131 8 46 67 74 201 258 -257 0 
-132 11 32 50 160 190 198 204 211 228 250 258 -257 0 
-133 59 87 205 245 -37 44 -2 62 104 258 -257 0 
-134 107 130 140 142 152 158 165 172 221 258 -257 0 
-33 35 164 -135 91 93 168 258 -257 0 
-136 16 45 71 72 73 75 112 143 193 195 207 214 227 258 -257 0 
-41 56 213 -45 16 71 72 73 75 112 136 143 193 195 207 214 227 -35 33 164 258 -257 0 
-137 258 -257 0 
-107 130 134 140 142 152 158 165 172 221 258 -257 0 
-138 258 -257 0 
-139 84 238 257 -258 0 
-83 64 206 -51 5 258 -257 0 
-140 107 130 134 142 152 158 165 172 221 -141 97 259 -257 -258 -64 -83 -206 0 
-41 56 213 -142 107 130 134 140 152 158 165 172 221 258 -257 0 
-67 8 46 74 131 201 259 -257 -258 -64 -83 -206 0 
-10 77 98 258 -257 0 
-143 16 45 71 72 73 75 112 136 193 195 207 214 227 258 -257 0 
-144 79 105 161 170 217 218 219 239 241 258 -257 0 
-145 197 -2 62 104 258 -257 0 
-8 46 67 74 131 201 -2 62 104 258 -257 0 
-11 32 50 132 160 190 198 204 211 228 250 -2 62 104 258 -257 0 
-146 -2 62 104 258 -257 0 
-147 258 -257 0 
-148 -149 -150 4 40 42 65 68 154 192 199 200 229 252 -10 77 98 258 -257 0 
-131 8 46 67 74 201 259 -257 -258 -64 -83 -206 0 
-151 57 257 -258 0 
-152 107 130 134 140 142 158 165 172 221 258 -257 0 
-153 -2 62 104 258 -257 0 
-154 4 40 42 65 68 150 192 199 200 229 252 -2 62 104 258 -257 0 
-37 44 -104 2 62 258 -257 0 
-155 52 81 85 203 258 -257 0 
-156 48 78 185 220 242 258 -257 0 
-108 166 258 -257 0 
-157 1 12 13 14 15 17 18 19 20 21 22 23 24 25 26 27 28 29 30 31 110 111 113 114 115 116 117 118 119 120 121 122 123 124 125 210 256 257 -258 0 
-158 107 130 134 140 142 152 165 172 221 257 -258 0 
-46 8 67 74 131 201 -104 2 62 257 -258 0 
-159 49 66 80 94 -3 257 -258 0 
-160 11 32 50 132 190 198 204 211 228 250 -161 79 105 144 170 217 218 219 239 241 258 -257 0 
-162 -37 44 258 -257 0 
-163 257 -258 0 
-164 33 35 -104 2 62 258 -257 0 
-165 107 130 134 140 142 152 158 172 221 -3 259 -257 -258 -64 -83 -206 0 
-166 108 258 -257 0 
-45 16 71 72 73 75 112 136 143 193 195 207 214 227 -2 62 104 -89 259 -257 -258 -64 -83 -206 0 
-62 2 104 -167 63 127 129 179 180 184 196 216 224 258 -257 0 
-86 -67 8 46 74 131 201 258 -257 0 
-3 -168 91 93 135 258 -257 0 
-169 39 60 240 258 -257 0 
-77 10 98 258 -257 0 
-170 79 105 144 161 217 218 219 239 241 258 -257 0 
-171 258 -257 0 
-32 11 50 132 160 190 198 204 211 228 250 259 -257 -258 -64 -83 -206 0 
-172 107 130 134 140 142 152 158 165 221 -173 259 -257 -258 -64 -83 -206 0 
-41 56 213 -51 5 258 -257 0 
-174 258 -257 0 
-98 10 77 258 -257 0 
-62 2 104 259 -257 -258 -64 -83 -206 0 
-175 -3 -168 91 93 135 258 -257 0 
-176 88 188 189 231 258 -257 0 
-177 -2 62 104 -178 76 243 -179 63 127 129 167 180 184 196 216 224 258 -257 0 
-175 -3 -2 62 104 -180 63 127 129 167 179 184 196 216 224 258 -257 0 
-181 -2 62 104 258 -257 0 
-2 62 104 -100 -101 -182 106 186 187 222 223 -76 178 243 258 -257 0 
-183 -62 2 104 -184 63 127 129 167 179 180 196 216 224 258 -257 0 
-185 48 78 156 220 242 258 -257 0 
-170 79 105 144 161 217 218 219 239 241 258 -257 0 
-177 -104 2 62 -186 106 182 187 222 223 -76 178 243 258 -257 0 
-2 62 104 -3 -187 106 182 186 222 223 -76 178 243 258 -257 0 
-9 -104 2 62 258 -257 0 
-146 -2 62 104 -187 106 182 186 222 223 258 -257 0 
-188 88 176 189 231 258 -257 0 
-189 88 176 188 231 258 -257 0 
-190 11 32 50 132 160 198 204 211 228 250 259 -257 -258 -64 -83 -206 0 
-191 -137 258 -257 0 
-192 4 40 42 65 68 150 154 199 200 229 252 260 -257 -258 0 
-193 16 45 71 72 73 75 112 136 143 195 207 214 227 -194 260 -257 -258 0 
-51 5 -41 56 213 258 -257 0 
-195 16 45 71 72 73 75 112 136 143 193 207 214 227 259 -257 -258 -64 -83 -206 0 
-196 63 127 129 167 179 180 184 216 224 259 -257 -258 -64 -83 -206 0 
-197 145 -62 2 104 258 -257 0 
-197 145 -62 2 104 259 -257 -258 -64 -83 -206 0 
-10 77 98 258 -257 0 
-101 -2 62 104 -187 106 182 186 222 223 -76 178 243 258 -257 0 
-198 11 32 50 132 160 190 204 211 228 250 257 -258 0 
-199 4 40 42 65 68 150 154 192 200 229 252 258 -257 0 
-183 258 -257 0 
-67 8 46 74 131 201 258 -257 0 
-200 4 40 42 65 68 150 154 192 199 229 252 258 -257 0 
-201 8 46 67 74 131 258 -257 0 
-202 253 258 -257 0 
-203 52 81 85 155 258 -257 0 
-204 11 32 50 132 160 190 198 211 228 250 257 -258 0 
-45 16 71 72 73 75 112 136 143 193 195 207 214 227 259 -257 -258 -64 -83 -206 0 
-205 59 87 133 245 257 -258 0 
-206 64 83 -3 257 -258 0 
-207 16 45 71 72 73 75 112 136 143 193 195 214 227 258 -257 0 
-92 232 258 -257 0 
-96 54 208 209 237 258 -257 0 
-148 -3 257 -258 0 
-41 56 213 -208 54 96 209 237 258 -257 0 
-41 56 213 -209 54 96 208 237 258 -257 0 
-210 1 12 13 14 15 17 18 19 20 21 22 23 24 25 26 27 28 29 30 31 110 111 113 114 115 116 117 118 119 120 121 122 123 124 125 157 256 257 -258 0 
-211 11 32 50 132 160 190 198 204 228 250 259 -257 -258 -64 -83 -206 0 
-212 259 -257 -258 -64 -83 -206 0 
-213 41 56 259 -257 -258 -64 -83 -206 0 
-214 16 45 71 72 73 75 112 136 143 193 195 207 227 258 -257 0 
-215 258 -257 0 
-213 41 56 258 -257 0 
-46 8 67 74 131 201 257 -258 0 
-10 77 98 258 -257 0 
-146 -104 2 62 -106 182 186 187 222 223 258 -257 0 
-183 -62 2 104 -216 63 127 129 167 179 180 184 196 224 258 -257 0 
-105 79 144 161 170 217 218 219 239 241 258 -257 0 
-77 10 98 258 -257 0 
-81 52 85 155 203 258 -257 0 
-2 62 104 -89 258 -257 0 
-217 79 105 144 161 170 218 219 239 241 258 -257 0 
-51 5 -3 -62 2 104 258 -257 0 
-47 -93 91 135 168 258 -257 0 
-218 79 105 144 161 170 217 219 239 241 258 -257 0 
-77 10 98 258 -257 0 
-146 -93 91 135 168 258 -257 0 
-219 79 105 144 161 170 217 218 239 241 258 -257 0 
-47 -168 91 93 135 258 -257 0 
-220 48 78 156 185 242 258 -257 0 
-221 107 130 134 140 142 152 158 165 172 258 -257 0 
-44 37 -2 62 104 259 -257 -258 -64 -83 -206 0 
-209 54 96 208 237 -62 2 104 258 -257 0 
-9 -100 -101 -104 2 62 258 -257 0 
-77 10 98 258 -257 0 
-2 62 104 257 -258 0 
-2 62 104 -100 -101 -222 106 182 186 187 223 258 -257 0 
-99 258 -257 0 
-47 -2 62 104 -89 258 -257 0 
-223 106 182 186 187 222 -2 62 104 259 -257 -258 -64 -83 -206 0 
-224 63 127 129 167 179 180 184 196 216 259 -257 -258 -64 -83 -206 0 
-168 91 93 135 258 -257 0 
-225 247 -3 -101 -2 62 104 259 -257 -258 -64 -83 -206 0 
-10 77 98 258 -257 0 
-226 259 -257 -258 -64 -83 -206 0 
-227 16 45 71 72 73 75 112 136 143 193 195 207 214 259 -257 -258 -64 -83 -206 0 
-228 11 32 50 132 160 190 198 204 211 250 259 -257 -258 -64 -83 -206 0 
-214 16 45 71 72 73 75 112 136 143 193 195 207 227 259 -257 -258 -64 -83 -206 0 
-226 258 -257 0 
-229 4 40 42 65 68 150 154 192 199 200 252 258 -257 0 
-230 258 -257 0 
-35 33 164 259 -257 -258 -64 -83 -206 0 
-231 88 176 188 189 258 -257 0 
-232 92 258 -257 0 
-233 258 -257 0 
-234 258 -257 0 
-235 61 -164 33 35 258 -257 0 
-140 107 130 134 142 152 158 165 172 221 258 -257 0 
-236 95 258 -257 0 
-237 54 96 208 209 257 -258 0 
-238 84 139 257 -258 0 
-90 -3 257 -258 0 
-239 79 105 144 161 170 217 218 219 241 258 -257 0 
-162 258 -257 0 
-240 39 60 169 258 -257 0 
-85 52 81 155 203 258 -257 0 
-241 79 105 144 161 170 217 218 219 239 258 -257 0 
-242 48 78 156 185 220 258 -257 0 
-62 2 104 -106 182 186 187 222 223 -243 76 178 258 -257 0 
-160 11 32 50 132 190 198 204 211 228 250 258 -257 0 
-235 61 -244 258 -257 0 
-235 61 -33 35 164 -135 91 93 168 258 -257 0 
-163 -245 59 87 133 205 258 -257 0 
-246 -247 225 -104 2 62 258 -257 0 
-191 -248 258 -257 0 
-59 87 133 205 245 -249 258 -257 0 
-250 11 32 50 132 160 190 198 204 211 228 258 -257 0 
-251 -252 4 40 42 65 68 150 154 192 199 200 229 -253 202 259 -257 -258 -64 -83 -206 0 
-254 260 -257 -258 0 
-255 258 -257 0 
-256 1 12 13 14 15 17 18 19 20 21 22 23 24 25 26 27 28 29 30 31 110 111 113 114 115 116 117 118 119 120 121 122 123 124 125 157 210 -44 37 258 -257 0 
